18051
23,32,37,44,53,56,70,84,109,137,147,156,159,198,211,236,245,249,262,269,289,292,317,379,397,421,426,446,452,463,469,473,479,539,550,568,573,599,603,610,643,657,658,669,708,726,732,736,743,770,775,807,827,830,845,935,945,967,989,1048,1085,1099,1114,1117,1133,1143,1158,1168,1199,1204,1248,1260,1269,1300,1322,1341,1344,1361,1383,1394,1400,1413,1419,1431,1442,1457,1485,1489,1507,1515,1544,1548,1549,1604,1608,1638,1647,1662,1667,1671,1692,1729,1731,1756,1765,1770,1861,1868,1906,1948,1953,1954,1964,1991,1997
